p cnf 7230 15
-3718 -4275 4276 0
3718 -4277 0
3722 -4273 0
4271 -4273 0
-2014 -3722 4272 0
2014 -4271 0
4275 -4277 0
2016 -4275 0
-2016 -3724 4274 0
-4276 4277 0
-4272 4273 0
-4274 4275 0
3724 -4275 0
-4270 4271 0
4270 -4271 0
